Version identifier: 20.1.0.0 | 2020-11-10 | 9bedb6d68
Tried aggregator 2 times.
MIP Presolve eliminated 1828 rows and 1104 columns.
MIP Presolve modified 3410 coefficients.
Aggregator did 184 substitutions.
Reduced MIP has 1394 rows, 1119 columns, and 4425 nonzeros.
Reduced MIP has 254 binaries, 865 generals, 0 SOSs, and 0 indicators.
Presolve time = 0.02 sec. (7.42 ticks)
Found incumbent of value 61.000000 after 0.03 sec. (12.77 ticks)
Probing fixed 40 vars, tightened 354 bounds.
Probing time = 0.00 sec. (1.52 ticks)
Tried aggregator 1 time.
Detecting symmetries...
MIP Presolve eliminated 600 rows and 40 columns.
MIP Presolve modified 52 coefficients.
Reduced MIP has 794 rows, 1079 columns, and 2585 nonzeros.
Reduced MIP has 338 binaries, 741 generals, 0 SOSs, and 0 indicators.
Presolve time = 0.01 sec. (3.03 ticks)
Probing time = 0.00 sec. (0.19 ticks)
Clique table members: 1.
MIP emphasis: balance optimality and feasibility.
MIP search method: dynamic search.
Parallel mode: deterministic, using up to 24 threads.
Root relaxation solution time = 0.01 sec. (2.72 ticks)

        Nodes                                         Cuts/
   Node  Left     Objective  IInf  Best Integer    Best Bound    ItCnt     Gap

*     0+    0                           61.0000        0.0000           100.00%
      0     0        0.0000    45       61.0000        0.0000      244  100.00%
      0     0        1.5154    65       61.0000     Cuts: 163      455   97.52%
*     0+    0                           11.0000        1.5154            86.22%
      0     0        2.8779   206       11.0000      Cuts: 47      638   73.84%
      0     0        2.8965   221       11.0000      Cuts: 95      688   73.67%
      0     0        2.8993   215       11.0000      Cuts: 38      713   73.64%
      0     0        2.9011   222       11.0000      Cuts: 47      748   73.63%
      0     0        2.9011   231       11.0000      Cuts: 24      769   73.63%
      0     0        2.9061   214       11.0000      Cuts: 10      777   73.58%
      0     0        2.9109   192       11.0000      Cuts: 50      811   73.54%
      0     0        2.9109   198       11.0000      Cuts: 30      857   73.54%
*     0+    0                            7.0000        2.9109            58.42%
      0     0        cutoff              7.0000        7.0000      857    0.00%
Elapsed time = 0.29 sec. (107.13 ticks, tree = 0.01 MB, solutions = 3)

Implied bound cuts applied:  26
Flow cuts applied:  13
Mixed integer rounding cuts applied:  9
Zero-half cuts applied:  52
Lift and project cuts applied:  2
Gomory fractional cuts applied:  21

Root node processing (before b&c):
  Real time             =    0.29 sec. (107.24 ticks)
Parallel b&c, 24 threads:
  Real time             =    0.00 sec. (0.00 ticks)
  Sync time (average)   =    0.00 sec.
  Wait time (average)   =    0.00 sec.
                          ------------
Total (root+branch&cut) =    0.29 sec. (107.24 ticks)

Solution status = Optimal
Solution LB = 7
Solution UB = 7
Runtime = 0.292169 seconds
	Command being timed: "/home/min/git_repos/CS598MEBProject/CNT-ILP/build/cnt -s 2 ./output/k6_n40/simC_c1_k6_n40_u2_s1_del04.input-right.cnp"
	User time (seconds): 3.66
	System time (seconds): 0.06
	Percent of CPU this job got: 1176%
	Elapsed (wall clock) time (h:mm:ss or m:ss): 0:00.31
	Average shared text size (kbytes): 0
	Average unshared data size (kbytes): 0
	Average stack size (kbytes): 0
	Average total size (kbytes): 0
	Maximum resident set size (kbytes): 84904
	Average resident set size (kbytes): 0
	Major (requiring I/O) page faults: 0
	Minor (reclaiming a frame) page faults: 17980
	Voluntary context switches: 3125
	Involuntary context switches: 654
	Swaps: 0
	File system inputs: 0
	File system outputs: 16
	Socket messages sent: 0
	Socket messages received: 0
	Signals delivered: 0
	Page size (bytes): 4096
	Exit status: 0
